c uprop, v00.0, 
c reading from data/prog700.c.cnf
c done reading: 0.002613
p cnf 138 631
-30 -68 0
30 68 0
-23 -72 0
23 72 0
-62 68 0
62 -68 0
-56 -68 0
56 68 0
-23 58 -68 0
-23 58 -62 0
58 -62 -68 0
23 -58 68 0
23 -58 62 0
-58 62 68 0
23 -51 -58 0
-51 -58 68 0
-51 -58 62 0
-23 51 58 0
51 58 -68 0
51 58 -62 0
-23 51 -62 -68 0
23 -51 62 68 0
-23 45 -58 0
23 -45 0
-45 58 0
23 -45 58 0
-40 -45 0
23 -40 -45 0
-40 -45 58 0
-23 40 45 0
40 45 -58 0
23 -40 58 0
-45 65 0
45 -65 0
-49 51 0
49 -51 0
-43 -51 0
43 51 0
-40 60 -68 0
-40 -49 60 0
-49 60 -68 0
40 -60 68 0
40 49 -60 0
49 -60 68 0
40 -60 -69 0
-60 68 -69 0
49 -60 -69 0
-40 60 69 0
60 -68 69 0
-49 60 69 0
-40 -49 -68 69 0
40 49 68 -69 0
-23 -65 76 0
-60 -65 76 0
-23 -60 76 0
23 65 -76 0
60 65 -76 0
23 60 -76 0
65 -76 -81 0
23 -76 -81 0
60 -76 -81 0
-65 76 81 0
-23 76 81 0
-60 76 81 0
-23 -60 -65 81 0
23 60 65 -81 0
-76 86 0
76 -86 0
-55 69 0
55 -69 0
-47 -69 0
47 69 0
42 -68 -81 0
42 -55 -81 0
42 -55 -68 0
-42 68 81 0
-42 55 81 0
-42 55 68 0
-42 81 -88 0
-42 68 -88 0
-42 55 -88 0
42 -81 88 0
42 -68 88 0
42 -55 88 0
-55 -68 -81 88 0
55 68 81 -88 0
-23 67 -86 0
-42 67 -86 0
-23 -42 67 0
23 -67 86 0
42 -67 86 0
23 42 -67 0
-67 86 -90 0
23 -67 -90 0
42 -67 -90 0
67 -86 90 0
-23 67 90 0
-42 67 90 0
-23 -42 -86 90 0
23 42 86 -90 0
-67 92 0
67 -92 0
-74 88 0
74 -88 0
-79 -88 0
79 88 0
-68 84 -90 0
-74 84 -90 0
-68 -74 84 0
68 -84 90 0
74 -84 90 0
68 74 -84 0
-84 90 -94 0
68 -84 -94 0
74 -84 -94 0
84 -90 94 0
-68 84 94 0
-74 84 94 0
-68 -74 -90 94 0
68 74 90 -94 0
-23 37 -92 0
37 -84 -92 0
-23 37 -84 0
23 -37 92 0
-37 84 92 0
23 -37 84 0
-34 -37 92 0
23 -34 -37 0
-34 -37 84 0
34 37 -92 0
-23 34 37 0
34 37 -84 0
-23 34 -84 -92 0
23 -34 84 92 0
31 -37 0
-31 37 0
-39 94 0
39 -94 0
-28 -94 0
28 94 0
-34 64 -68 0
-34 -39 64 0
-39 64 -68 0
34 -64 68 0
34 39 -64 0
39 -64 68 0
-27 34 -64 0
-27 -64 68 0
-27 39 -64 0
27 -34 64 0
27 64 -68 0
27 -39 64 0
27 -34 -39 -68 0
-27 34 39 68 0
-23 -31 0
-31 -64 0
-23 -64 0
26 -31 0
-23 26 0
26 -64 0
-23 26 -31 -64 0
23 -26 31 64 0
-25 -56 0
25 56 0
-22 -43 0
22 43 0
-20 -47 0
20 47 0
-18 -79 0
18 79 0
-16 -28 0
16 28 0
-27 -53 0
27 53 0
-14 -26 0
14 26 0
-15 -17 0
-15 -24 0
15 17 24 0
17 24 -71 0
-17 -24 -71 0
-17 24 71 0
17 -24 71 0
15 -78 0
-54 -78 0
-15 54 78 0
-15 54 -83 0
15 -54 -83 0
15 54 83 0
-15 -54 83 0
78 -93 0
-21 -93 0
21 -78 93 0
21 -36 -78 0
-21 -36 78 0
21 36 78 0
-21 36 -78 0
-33 93 0
-13 -33 0
13 33 -93 0
-12 13 -93 0
-12 -13 93 0
12 13 93 0
12 -13 -93 0
-29 33 0
-19 -29 0
19 29 -33 0
19 -33 -96 0
-19 33 -96 0
19 33 96 0
-19 -33 96 0
29 -73 0
-73 -97 0
-29 73 97 0
-29 97 -98 0
29 -97 -98 0
29 97 98 0
-29 -97 98 0
73 -99 0
-99 -100 0
-73 99 100 0
-73 100 -101 0
73 -100 -101 0
73 100 101 0
-73 -100 101 0
24 -102 0
17 -102 0
-17 -24 102 0
-17 -24 -103 0
17 24 -103 0
17 -24 103 0
-17 24 103 0
-24 -54 104 0
-54 -102 104 0
-24 -102 104 0
24 54 -104 0
54 102 -104 0
24 102 -104 0
54 -104 -105 0
24 -104 -105 0
102 -104 -105 0
-54 104 105 0
-24 104 105 0
-102 104 105 0
-24 -54 -102 105 0
24 54 102 -105 0
-21 -54 106 0
-21 -104 106 0
-54 -104 106 0
21 54 -106 0
21 104 -106 0
54 104 -106 0
21 -106 -107 0
54 -106 -107 0
104 -106 -107 0
-21 106 107 0
-54 106 107 0
-104 106 107 0
-21 -54 -104 107 0
21 54 104 -107 0
-13 -21 108 0
-13 -106 108 0
-21 -106 108 0
13 21 -108 0
13 106 -108 0
21 106 -108 0
13 -63 -108 0
21 -63 -108 0
-63 106 -108 0
-13 63 108 0
-21 63 108 0
63 -106 108 0
-13 -21 63 -106 0
13 21 -63 106 0
-13 -19 57 0
-19 57 -108 0
-13 57 -108 0
13 19 -57 0
19 -57 108 0
13 -57 108 0
19 -57 -59 0
13 -57 -59 0
-57 -59 108 0
-19 57 59 0
-13 57 59 0
57 59 -108 0
-13 -19 59 -108 0
13 19 -59 108 0
-19 52 -97 0
52 -57 -97 0
-19 52 -57 0
19 -52 97 0
-52 57 97 0
19 -52 57 0
-46 -52 97 0
19 -46 -52 0
-46 -52 57 0
46 52 -97 0
-19 46 52 0
46 52 -57 0
-19 46 -57 -97 0
19 -46 57 97 0
41 -97 -100 0
41 -52 -100 0
41 -52 -97 0
-41 97 100 0
-41 52 100 0
-41 52 97 0
-41 100 -109 0
-41 97 -109 0
-41 52 -109 0
41 -100 109 0
41 -97 109 0
41 -52 109 0
-52 -97 -100 109 0
52 97 100 -109 0
-66 100 0
41 -66 0
-41 66 -100 0
-41 -100 -110 0
41 100 -110 0
41 -100 110 0
-41 100 110 0
105 -111 0
17 -111 0
-17 -105 111 0
-17 -105 -112 0
17 105 -112 0
17 -105 112 0
-17 105 112 0
-24 -107 113 0
-107 -111 113 0
-24 -111 113 0
24 107 -113 0
107 111 -113 0
24 111 -113 0
107 -113 -114 0
24 -113 -114 0
111 -113 -114 0
-107 113 114 0
-24 113 114 0
-111 113 114 0
-24 -107 -111 114 0
24 107 111 -114 0
-54 -63 115 0
-63 -113 115 0
-54 -113 115 0
54 63 -115 0
63 113 -115 0
54 113 -115 0
63 -115 -116 0
54 -115 -116 0
113 -115 -116 0
-63 115 116 0
-54 115 116 0
-113 115 116 0
-54 -63 -113 116 0
54 63 113 -116 0
-21 -59 117 0
-59 -115 117 0
-21 -115 117 0
21 59 -117 0
59 115 -117 0
21 115 -117 0
-50 59 -117 0
21 -50 -117 0
-50 115 -117 0
50 -59 117 0
-21 50 117 0
50 -115 117 0
-21 50 -59 -115 0
21 -50 59 115 0
-13 44 -46 0
44 -46 -117 0
-13 44 -117 0
13 -44 46 0
-44 46 117 0
13 -44 117 0
-44 46 -61 0
13 -44 -61 0
-44 -61 117 0
44 -46 61 0
-13 44 61 0
44 61 -117 0
-13 -46 61 -117 0
13 46 -61 117 0
-19 70 -109 0
-44 70 -109 0
-19 -44 70 0
19 -70 109 0
44 -70 109 0
19 44 -70 0
-70 -77 109 0
19 -70 -77 0
44 -70 -77 0
70 77 -109 0
-19 70 77 0
-44 70 77 0
-19 -44 77 -109 0
19 44 -77 109 0
82 -97 -110 0
-70 82 -110 0
-70 82 -97 0
-82 97 110 0
70 -82 110 0
70 -82 97 0
-82 110 -118 0
-82 97 -118 0
70 -82 -118 0
82 -110 118 0
82 -97 118 0
-70 82 118 0
-70 -97 -110 118 0
70 97 110 -118 0
-66 87 -100 0
-66 -82 87 0
-82 87 -100 0
66 -87 100 0
66 82 -87 0
82 -87 100 0
66 -87 -119 0
-87 100 -119 0
82 -87 -119 0
-66 87 119 0
87 -100 119 0
-82 87 119 0
-66 -82 -100 119 0
66 82 100 -119 0
116 -120 0
17 -120 0
-17 -116 120 0
-17 -116 -121 0
17 116 -121 0
17 -116 121 0
-17 116 121 0
-24 -50 122 0
-50 -120 122 0
-24 -120 122 0
24 50 -122 0
50 120 -122 0
24 120 -122 0
50 -122 -123 0
24 -122 -123 0
120 -122 -123 0
-50 122 123 0
-24 122 123 0
-120 122 123 0
-24 -50 -120 123 0
24 50 120 -123 0
-54 -61 124 0
-61 -122 124 0
-54 -122 124 0
54 61 -124 0
61 122 -124 0
54 122 -124 0
61 -124 -125 0
54 -124 -125 0
122 -124 -125 0
-61 124 125 0
-54 124 125 0
-122 124 125 0
-54 -61 -122 125 0
54 61 122 -125 0
-21 -77 126 0
-77 -124 126 0
-21 -124 126 0
21 77 -126 0
77 124 -126 0
21 124 -126 0
-77 126 0
-21 126 0
-124 126 0
-21 -77 -124 0
-13 48 -118 0
48 -118 -126 0
-13 48 -126 0
13 -48 118 0
-48 118 126 0
13 -48 126 0
48 -118 0
-13 48 0
48 -126 0
-13 -118 -126 0
-19 89 -119 0
-48 89 -119 0
-19 -48 89 0
19 -89 119 0
48 -89 119 0
19 48 -89 0
89 -119 0
-19 89 0
-48 89 0
-19 -48 -119 0
-87 91 -97 0
-87 -89 91 0
-89 91 -97 0
87 -91 97 0
87 89 -91 0
89 -91 97 0
-87 91 0
91 -97 0
-89 91 0
-87 -89 -97 0
-91 -100 0
91 -100 0
-91 100 0
-17 -127 0
-103 -127 0
17 103 127 0
17 103 -128 0
-17 -103 -128 0
-17 103 128 0
17 -103 128 0
127 -129 0
-112 -129 0
112 -127 129 0
112 -127 -130 0
-112 127 -130 0
112 127 130 0
-112 -127 130 0
129 -131 0
-114 -131 0
114 -129 131 0
114 -129 -132 0
-114 129 -132 0
114 129 132 0
-114 -129 132 0
131 -133 0
-121 -133 0
121 -131 133 0
-75 121 -131 0
-75 -121 131 0
75 121 131 0
75 -121 -131 0
-80 133 0
-80 -123 0
80 123 -133 0
-85 123 -133 0
-85 -123 133 0
85 123 133 0
85 -123 -133 0
80 -95 0
-95 -125 0
-80 95 125 0
-38 -80 125 0
-38 80 -125 0
38 80 125 0
38 -80 -125 0
-35 95 0
35 -95 0
-95 -134 0
95 134 0
-32 35 0
32 -35 0
-35 -135 0
35 135 0
32 -136 0
-32 136 0
-32 -137 0
32 137 0
136 -138 0
-136 138 0
-11 -136 0
11 136 0
-10 138 0
10 -138 0
-9 -138 0
9 138 0
-8 10 0
8 -10 0
-7 -10 0
7 10 0
-6 56 0
-6 17 0
6 -17 -56 0
17 -56 0
-17 56 0
5 -43 -103 0
5 -6 -43 0
5 -6 -103 0
-5 43 103 0
-5 6 43 0
-5 6 103 0
-5 43 0
-5 103 0
-5 6 0
6 43 103 0
4 -47 -112 0
4 -5 -47 0
4 -5 -112 0
-4 47 112 0
-4 5 47 0
-4 5 112 0
4 -47 0
4 -112 0
4 -5 0
-5 -47 -112 0
3 -79 -114 0
3 -4 -79 0
3 -4 -114 0
-3 79 114 0
-3 4 79 0
-3 4 114 0
-3 79 0
-3 114 0
-3 4 0
4 79 114 0
2 -28 -121 0
2 -3 -28 0
2 -3 -121 0
-2 28 121 0
-2 3 28 0
-2 3 121 0
2 -28 0
2 -121 0
2 -3 0
-3 -28 -121 0
1 -27 -123 0
1 -2 -27 0
1 -2 -123 0
-1 27 123 0
-1 2 27 0
-1 2 123 0
-1 27 0
-1 123 0
-1 2 0
2 27 123 0
-26 -125 0
-1 -26 0
-1 -125 0
1 26 125 0
